data/instances/vrp_files/train_73.vrp
NAME : 73
COMMENT : Generated instance No. 73
TYPE : CVRP
DIMENSION : 21
EDGE_WEIGHT_TYPE : EUC_2D
CAPACITY : 30
NODE_COORD_SECTION
 1 162 734
 2 675 395
 3 756 454
 4 412 934
 5 250 120
 6 584 969
 7 377 62
 8 339 505
 9 161 658
 10 997 451
 11 354 400
 12 115 883
 13 414 387
 14 659 442
 15 648 61
 16 813 940
 17 648 954
 18 151 477
 19 601 581
 20 401 338
 21 126 391
DEMAND_SECTION
1 0
2 6
3 10
4 4
5 1
6 7
7 2
8 9
9 3
10 8
11 8
12 3
13 4
14 2
15 4
16 9
17 2
18 3
19 4
20 5
21 1
DEPOT_SECTION
 1
 -1
EOF